scip/project/solution/neos-787933.sol

=obj= 30.00000000 
C24074 1 
C24075 1 
C24077 1 
C24079 1 
C24081 1 
C24092 1 
C24094 1 
C24096 1 
C24098 1 
C24107 1 
C24109 1 
C24111 1 
C24113 1 
C24115 1 
C24116 1 
C24117 1 
C24118 1 
C24119 1 
C24120 1 
C24121 1 
C24122 1 
C24123 1 
C24124 1 
C24127 1 
C24128 1 
C24130 1 
C24131 1 
C24132 1 
C24134 1 
C24137 1 
C24138 1 
C24141 1 
C24142 1 
C24149 1 
C24150 1 
C24155 1 
C24156 1 
C24159 1 
C24167 1 
C24168 1 
C24177 1 
C24179 1 
C24180 1 
C24181 1 
C24182 1 
C24183 1 
C24193 1 
C24194 1 
C24199 1 
C24202 1 
C24205 1 
C24206 1 
C30326 1 
C30328 1 
C30330 1 
C30332 1 
C30343 1 
C30345 1 
C30347 1 
C30349 1 
C30358 1 
C30360 1 
C30362 1 
C30364 1 
C30367 1 
C30368 1 
C30370 1 
C30374 1 
C30375 1 
C30378 1 
C30379 1 
C30380 1 
C30382 1 
C30383 1 
C30388 1 
C30392 1 
C30393 1 
C30400 1 
C30401 1 
C30406 1 
C30407 1 
C30419 1 
C30428 1 
C30430 1 
C30431 1 
C30433 1 
C30434 1 
C30444 1 
C30445 1 
C30450 1 
C30453 1 
C30454 1 
C30455 1 
C30456 1 
C30457 1 
C30741 1 
C30747 1 
C30785 1 
C30786 1 
C30789 1 
C30790 1 
C30797 1 
C30798 1 
C30810 1 
C30816 1 
C30845 1 
C30853 1 
C53690 1 
C53695 1 
C53699 1 
C53701 1 
C53704 1 
C53726 1 
C53727 1 
C54763 1 
C54768 1 
C54790 1 
C54791 1 
C54931 1 
C54934 1 
C54936 1 
C54938 1 
C54939 1 
C54947 1 
C54949 1 
C54951 1 
C54953 1 
C54955 1 
C54964 1 
C54966 1 
C54968 1 
C54970 1 
C54972 1 
C54973 1 
C54975 1 
C54981 1 
C54982 1 
C54985 1 
C54988 1 
C54989 1 
C54990 1 
C54991 1 
C54993 1 
C54994 1 
C54995 1 
C55003 1 
C55012 1 
C55013 1 
C55015 1 
C55024 1 
C55038 1 
C55039 1 
C55049 1 
C55050 1 
C55051 1 
C79278 1 
C79365 1 
C79369 1 
C80823 1 
C80828 1 
C80832 1 
C80834 1 
C80854 1 
C80855 1 
C80856 1 
C81048 1 
C81089 1 
C81098 1 
C81100 1 
C81120 1 
C81121 1 
C81122 1 
C83540 1 
C83615 1 
C83620 1 
C83624 1 
C83626 1 
C89753 1 
C89754 1 
C89755 1 
C89756 1 
C89757 1 
C89758 1 
C89759 1 
C89760 1 
C89761 1 
C92579 1 
C92581 1 
C92589 1 
C92636 1 
C92644 1 
C96027 1 
C96029 1 
C96066 1 
C96067 1 
C96068 1 
C96070 1 
C96071 1 
C96072 1 
C96073 1 
C96074 1 
C96075 1 
C96081 1 
C96083 1 
C96120 1 
C96134 1 
C96136 1 
C96137 1 
C96138 1 
C96139 1 
C96140 1 
C96141 1 
C96142 1 
C96143 1 
C96144 1 
C96145 1 
C99485 1 
C99487 1 
C99489 1 
C99491 1 
C99493 1 
C99496 1 
C99498 1 
C99502 1 
C99504 1 
C99506 1 
C99508 1 
C99510 1 
C99516 1 
C99519 1 
C99521 1 
C99523 1 
C99525 1 
C99526 1 
C99527 1 
C99529 1 
C99531 1 
C99532 1 
C99533 1 
C99536 1 
C99537 1 
C99540 1 
C99541 1 
C99544 1 
C99545 1 
C99548 1 
C99549 1 
C99550 1 
C99551 1 
C99558 1 
C99559 1 
C99568 1 
C99569 1 
C99578 1 
C99592 1 
C99593 1 
C99604 1 
C99605 1 
C99606 1 
C99614 1 
C99617 1 
C111601 1 
C111603 1 
C111607 1 
C111609 1 
C111619 1 
C111654 1 
C111662 1 
C111680 1 
C117055 1 
C117057 1 
C117063 1 
C117065 1 
C117109 1 
C117117 1 
C117133 1 
C117316 1 
C117318 1 
C117334 1 
C117336 1 
C117338 1 
C117376 1 
C117384 1 
C117391 1 
C117395 1 
C117396 1 
C122763 1 
C122770 1 
C122772 1 
C122786 1 
C122788 1 
C122817 1 
C122821 1 
C122831 1 
C122839 1 
C122890 1 
C122903 1 
C122905 1 
C122911 1 
C122919 1 
C122921 1 
C122942 1 
C122954 1 
C122964 1 
C122972 1 
C122982 1 
C123018 1 
C123023 1 
C129414 1 
C129416 1 
C129418 1 
C129421 1 
C129423 1 
C129435 1 
C129437 1 
C129439 1 
C129443 1 
C129448 1 
C129469 1 
C129479 1 
C129480 1 
C129487 1 
C129488 1 
C131914 1 
C131915 1 
C131916 1 
C131917 1 
C131918 1 
C131919 1 
C131920 1 
C131921 1 
C131922 1 
C147106 1 
C147113 1 
C147115 1 
C147129 1 
C147131 1 
C147135 1 
C147136 1 
C147161 1 
C147171 1 
C147179 1 
C147186 1 
C147237 1 
C147246 1 
C147248 1 
C147262 1 
C147264 1 
C147266 1 
C147285 1 
C147294 1 
C147304 1 
C147312 1 
C147315 1 
C147316 1 
C147319 1 
C147360 1 
C147363 1 
C149362 1 
C149395 1 
C149441 1 
C149449 1 
C149451 1 
C149456 1 
C149458 1 
C149462 1 
C149466 1 
C149482 1 
C149483 1 
C149484 1 
C152168 1 
C152231 1 
C152240 1 
C152241 1 
C152243 1 
C152248 1 
C152250 1 
C152254 1 
C181644 1 
C181650 1 
C181672 1 
C181673 1 
C182903 1 
C182927 1 
C182928 1 
C182945 1 
C182953 1 
C182961 1 
C182974 1 
C216418 1 
C216420 1 
C216422 1 
C216424 1 
C216463 1 
C216464 1 
C216471 1 
C216472 1 
C216478 1 
C216480 1 
C216495 1 
C216497 1 
C222979 1 
C222995 1 
C223006 1 
C227859 1 
C227900 1 
C227908 1 
C227916 1 
C227927 1 
C234794 1 
C234841 1 
C234844 1 
C235016 1 
C235024 1 
C235026 1 
C235209 1 
C235220 1 
C235222 1 
C235241 1 
C235287 1 
C235309 1 
C235335 1 
C235361 1 
C235452 1 
C235493 1 
C235495 1 
C235536 1 
C235537 1 
C235586 1 
C235604 1 
C235719 1 
C235720 1 
C235736 1 
C235757 1 
C235978 1 
C235988 1 
C236240 1 
C236289 1 
C236326 1 
